
Gurobi 12.0.2 (win64) logging started Mon Nov 10 20:24:54 2025

Set parameter LogFile to value "C:\Ioana\_uni\honours\slp\algorithm\Main_files\results\respiration_paracetamol\Task_002_Sample004_irr_gurobi.log"
Gurobi Optimizer version 12.0.2 build v12.0.2rc0 (win64 - Windows 11.0 (26100.2))

CPU model: Intel(R) Core(TM) Ultra 5 125H, instruction set [SSE2|AVX|AVX2]
Thread count: 14 physical cores, 18 logical processors, using up to 18 threads

Non-default parameters:
TimeLimit  2200

Optimize a model with 47236 rows, 34507 columns and 146717 nonzeros
Model fingerprint: 0xbb8db8f8
Variable types: 17258 continuous, 17249 integer (17249 binary)
Coefficient statistics:
  Matrix range     [1e-04, 8e+04]
  Objective range  [1e-04, 1e+01]
  Bounds range     [1e+00, 1e+03]
  RHS range        [1e+00, 1e+00]
Presolve removed 30790 rows and 21554 columns
Presolve time: 0.32s
Presolved: 16446 rows, 12953 columns, 54673 nonzeros
Variable types: 6410 continuous, 6543 integer (6543 binary)

Root relaxation: objective 1.505457e-04, 779 iterations, 0.04 seconds (0.06 work units)

    Nodes    |    Current Node    |     Objective Bounds      |     Work
 Expl Unexpl |  Obj  Depth IntInf | Incumbent    BestBd   Gap | It/Node Time

     0     0    0.00015    0   11          -    0.00015      -     -    0s
H    0     0                       0.1184855    0.00015   100%     -    0s
H    0     0                       0.1043749    0.00015   100%     -    0s
     0     0    0.04177    0   16    0.10437    0.04177  60.0%     -    0s
     0     0    0.04177    0    8    0.10437    0.04177  60.0%     -    0s
     0     0    0.10044    0    8    0.10437    0.10044  3.77%     -    1s
     0     0          -    0         0.10437    0.10437  0.01%     -    1s

Cutting planes:
  Gomory: 3
  Cover: 6
  Implied bound: 1
  MIR: 4
  Flow cover: 5
  Flow path: 4
  Network: 4

Explored 1 nodes (2616 simplex iterations) in 1.13 seconds (1.12 work units)
Thread count was 18 (of 18 available processors)

Solution count 2: 0.104375 0.118485 

Optimal solution found (tolerance 1.00e-04)
Best objective 1.043748839397e-01, best bound 1.043686433816e-01, gap 0.0060%
